(set-logic HORN)
(set-info :source |
    Benchmark: C_VC
    Output by Princess (http://www.philipp.ruemmer.org/princess.shtml)
|)
(set-info :status sat)
;===============================================================================
; Encoding of Heap sorts and operations
;-------------------------------------------------------------------------------
(define-sort Addr() Int)
(declare-datatypes ((AddrRange 0))
                   (((AddrRange (AddrRangeStart Addr) (AddrRangeSize Int)))))

(declare-datatypes ((HeapObject 0) (TSLL 0))
                   (((O_Int (getInt Int)) (O_UInt (getUInt Int)) (O_Addr (getAddr Addr)) (O_AddrRange (getAddrRange AddrRange)) (O_TSLL (getTSLL TSLL)) (defObj))
                   ((TSLL (|TSLL::next| Addr) (|TSLL::prev| Addr) (|TSLL::inner| Addr)))))
(declare-datatypes ((BatchAllocResHeap 0) (AllocResHeap 0) (Heap 0))
                   (((BatchAllocResHeap   (newBatchHeap Heap) (newAddrRange AddrRange)))
                   ((AllocResHeap   (newHeap Heap) (newAddr Addr)))
                    ((HeapCtor (HeapSize Int)
                               (HeapContents (Array Addr HeapObject))))))
(define-fun nullAddr  () Addr 0)
(define-fun valid     ((h Heap) (p Addr)) Bool
  (and (>= (HeapSize h) p) (> p 0)))
(define-fun emptyHeap () Heap (
  HeapCtor 0 (( as const (Array Addr HeapObject)) defObj)))
(define-fun read ((h Heap) (p Addr)) HeapObject
  (ite (valid h p)
       (select (HeapContents h) p)
       defObj))
(define-fun write ((h Heap) (p Addr) (o HeapObject)) Heap
  (ite (valid h p)
       (HeapCtor (HeapSize h) (store (HeapContents h) p o))
       h))
(define-fun alloc   ((h Heap) (o HeapObject)) AllocResHeap
  (AllocResHeap (HeapCtor (+ 1 (HeapSize h))
                    (store (HeapContents h) (+ 1 (HeapSize h)) o))
          (+ 1 (HeapSize h))))

;===============================================================================
(declare-fun inv_main1003_2 (Heap) Bool)
(declare-fun inv_main1006_11 (Heap Addr) Bool)
(declare-fun inv_main1006_256 (Heap Addr) Bool)
(declare-fun inv_main1008_2 (Heap Addr Addr) Bool)
(declare-fun inv_main1018_12 (Heap Addr Addr) Bool)
(declare-fun inv_main1019_12 (Heap Addr Addr) Bool)
(declare-fun inv_main1019_252 (Heap Addr Addr) Bool)
(declare-fun inv_main1026_11 (Heap Addr Addr) Bool)
(declare-fun inv_main1031_3 (Heap Addr Addr Int Addr) Bool)
(declare-fun inv_main1038_13 (Heap Addr Addr Int Addr) Bool)
(declare-fun inv_main1039_13 (Heap Addr Addr Int Addr) Bool)
(declare-fun inv_main1040_13 (Heap Addr Addr Int Addr) Bool)
(declare-fun inv_main1043_12 (Heap Addr Addr Int Addr) Bool)
(declare-fun inv_main1055_13 (Heap Addr Addr) Bool)
(declare-fun inv_main1056_13 (Heap Addr Addr) Bool)
(declare-fun inv_main1057_13 (Heap Addr Addr) Bool)
(declare-fun inv_main_26 (Heap Addr Addr) Bool)
(declare-fun inv_main_38 (Heap Addr Addr) Bool)
(declare-fun inv_main_42 (Heap Addr Addr Int Addr) Bool)
(declare-fun inv_main_6 (Heap Addr) Bool)
(assert (forall ((var0 Heap)) (or (not (= var0 emptyHeap)) (inv_main1003_2 var0))))
(assert (forall ((var0 Heap) (var1 Addr) (var2 Heap) (var3 Addr) (var4 TSLL) (var5 Heap) (var6 Addr) (var7 Heap)) (or (not (and (inv_main1003_2 var7) (and (and (= var6 nullAddr) (and (and (= var5 (newHeap (alloc var7 (O_TSLL var4)))) (= var3 (newAddr (alloc var7 (O_TSLL var4))))) (and (= var2 (write var5 var3 (O_TSLL (TSLL nullAddr (|TSLL::prev| (getTSLL (read var5 var3))) (|TSLL::inner| (getTSLL (read var5 var3))))))) (= var1 var3)))) (and (= var0 (write var2 var1 (O_TSLL (TSLL (|TSLL::next| (getTSLL (read var2 var1))) nullAddr (|TSLL::inner| (getTSLL (read var2 var1))))))) (= var6 var1))))) (inv_main1006_11 var0 var6))))
(assert (forall ((var0 Addr) (var1 Addr) (var2 Heap) (var3 Addr) (var4 Addr) (var5 Addr) (var6 Heap)) (or (not (and (inv_main_38 var6 var5 var4) (and (= nullAddr var3) (and (not (= nullAddr var3)) (and (and (and (and (= var2 var6) (= var1 var5)) (= var0 var4)) (= var3 (|TSLL::inner| (getTSLL (read var6 var5))))) (not (= nullAddr var5))))))) (inv_main1055_13 var2 var1 var3))))
(assert (forall ((var0 Addr) (var1 Heap) (var2 Int) (var3 Addr) (var4 Addr) (var5 Addr) (var6 Heap)) (or (not (and (inv_main1008_2 var6 var5 var4) (and (= nullAddr var3) (and (= var2 0) (and (and (= var1 var6) (= var3 var5)) (= var0 nullAddr)))))) (inv_main1026_11 var1 var3 var3))))
(assert (forall ((var0 Addr) (var1 Int) (var2 Addr) (var3 Addr) (var4 Heap)) (or (not (and (inv_main1031_3 var4 var3 var2 var1 var0) (and (not (<= 0 (+ 1 (* (- 1) var1)))) (= nullAddr var0)))) (inv_main1043_12 var4 var3 var2 var1 var0))))
(assert (forall ((var0 Addr) (var1 Int) (var2 Addr) (var3 Addr) (var4 Heap)) (or (not (and (inv_main_42 var4 var3 var2 var1 var0) (and (not (= nullAddr (|TSLL::next| (getTSLL (read var4 var0))))) (and (= nullAddr (|TSLL::inner| (getTSLL (read var4 var0)))) (not (= nullAddr var0)))))) (inv_main1040_13 var4 var3 var2 var1 var0))))
(assert (forall ((var0 Addr) (var1 Heap) (var2 Addr) (var3 Addr) (var4 Heap) (var5 Int) (var6 Addr) (var7 Addr) (var8 Addr) (var9 TSLL) (var10 Heap) (var11 Addr) (var12 Addr) (var13 Addr) (var14 Addr) (var15 Addr) (var16 Heap) (var17 Heap) (var18 Addr) (var19 Addr) (var20 Addr) (var21 Heap)) (or (not (and (inv_main1008_2 var21 var20 var19) (and (= var18 nullAddr) (and (and (not (= nullAddr var18)) (and (and (and (and (and (= var17 var16) (= var15 var14)) (= var13 var12)) (= var11 (|TSLL::next| (getTSLL (read var16 var12))))) (and (and (and (and (and (= var10 (newHeap (alloc var21 (O_TSLL var9)))) (= var8 var20)) (= var7 var19)) (= var6 (newAddr (alloc var21 (O_TSLL var9))))) (not (= var5 0))) (and (and (= var4 (write var10 var7 (O_TSLL (TSLL var6 (|TSLL::prev| (getTSLL (read var10 var7))) (|TSLL::inner| (getTSLL (read var10 var7))))))) (= var3 var8)) (= var2 var7)))) (and (and (= var16 (write var4 (|TSLL::next| (getTSLL (read var4 var2))) (O_TSLL (TSLL (|TSLL::next| (getTSLL (read var4 (|TSLL::next| (getTSLL (read var4 var2)))))) var2 (|TSLL::inner| (getTSLL (read var4 (|TSLL::next| (getTSLL (read var4 var2)))))))))) (= var14 var3)) (= var12 var2)))) (and (and (= var1 (write var17 var11 (O_TSLL (TSLL nullAddr (|TSLL::prev| (getTSLL (read var17 var11))) (|TSLL::inner| (getTSLL (read var17 var11))))))) (= var0 var15)) (= var18 var11)))))) (inv_main1019_12 var1 var0 var18))))
(assert (forall ((var0 Addr) (var1 Int) (var2 Addr) (var3 Addr) (var4 Heap)) (or (not (and (inv_main_42 var4 var3 var2 var1 var0) (and (not (= nullAddr (|TSLL::inner| (getTSLL (read var4 var0))))) (not (= nullAddr var0))))) (inv_main1039_13 var4 var3 var2 var1 var0))))
(assert (forall ((var0 Addr) (var1 Int) (var2 Addr) (var3 Addr) (var4 Heap) (var5 Addr) (var6 Addr) (var7 Int) (var8 Addr) (var9 Addr) (var10 Heap)) (or (not (and (inv_main1031_3 var10 var9 var8 var7 var6) (and (= nullAddr var5) (and (and (and (and (and (and (= var4 var10) (= var3 var9)) (= var2 var8)) (= var1 var7)) (= var0 var6)) (= var5 (|TSLL::next| (getTSLL (read var10 var8))))) (and (<= 0 (+ 1 (* (- 1) var7))) (= nullAddr var6)))))) (inv_main_38 var4 var3 var5))))
(assert (forall ((var0 Addr) (var1 Heap) (var2 Int) (var3 Addr) (var4 Addr) (var5 Addr) (var6 Heap)) (or (not (and (inv_main1008_2 var6 var5 var4) (and (= nullAddr var3) (and (not (= nullAddr var3)) (and (= var2 0) (and (and (= var1 var6) (= var3 var5)) (= var0 nullAddr))))))) (inv_main_38 var1 var3 var3))))
(assert (forall ((var0 Addr) (var1 Addr) (var2 Addr) (var3 Heap) (var4 Addr) (var5 Addr) (var6 Addr) (var7 Addr) (var8 Addr) (var9 Heap) (var10 Heap) (var11 Addr) (var12 Addr) (var13 Heap)) (or (not (and (inv_main_38 var13 var12 var11) (and (and (and (and (and (= var10 var9) (= var8 var7)) (= var6 var5)) (= var4 (|TSLL::next| (getTSLL (read var9 var7))))) (and (and (= var3 (write var10 var8 defObj)) (= var2 var8)) (= var1 var4))) (and (= nullAddr var5) (and (and (and (and (= var9 var13) (= var7 var12)) (= var0 var11)) (= var5 (|TSLL::inner| (getTSLL (read var13 var12))))) (not (= nullAddr var12))))))) (inv_main_38 var3 var1 var1))))
(assert (forall ((var0 Addr) (var1 Addr) (var2 Heap) (var3 Addr) (var4 Addr) (var5 Addr) (var6 Heap) (var7 Addr) (var8 Addr) (var9 Heap) (var10 Addr) (var11 Addr) (var12 Addr) (var13 Addr) (var14 Addr) (var15 Heap) (var16 Heap) (var17 Addr) (var18 Addr) (var19 Heap)) (or (not (and (inv_main_38 var19 var18 var17) (and (and (and (and (and (and (= var16 var15) (= var14 var13)) (= var12 var11)) (= var10 (|TSLL::next| (getTSLL (read var15 var13))))) (and (and (= var9 (write var16 var14 defObj)) (= var8 var14)) (= var7 var10))) (and (and (= nullAddr (|TSLL::next| (getTSLL (read var6 var5)))) (and (= nullAddr (|TSLL::inner| (getTSLL (read var6 var5)))) (and (not (= nullAddr var5)) (and (not (= nullAddr var5)) (and (and (and (and (= var6 var19) (= var4 var18)) (= var3 var17)) (= var5 (|TSLL::inner| (getTSLL (read var19 var18))))) (not (= nullAddr var18))))))) (and (and (= var2 (write var6 var5 defObj)) (= var1 var4)) (= var0 var5)))) (and (and (= var15 (write var2 var1 (O_TSLL (TSLL (|TSLL::next| (getTSLL (read var2 var1))) (|TSLL::prev| (getTSLL (read var2 var1))) nullAddr)))) (= var13 var1)) (= var11 var0))))) (inv_main_38 var9 var7 var7))))
(assert (forall ((var0 Addr) (var1 Int) (var2 Addr) (var3 Addr) (var4 Heap)) (or (not (and (inv_main_42 var4 var3 var2 var1 var0) (= nullAddr var0))) (inv_main1038_13 var4 var3 var2 var1 var0))))
(assert (forall ((var0 Addr) (var1 Heap) (var2 Addr) (var3 Addr) (var4 Heap) (var5 Int) (var6 Addr) (var7 Addr) (var8 Addr) (var9 TSLL) (var10 Heap) (var11 Addr) (var12 Addr) (var13 Addr) (var14 Addr) (var15 Addr) (var16 Heap) (var17 Heap) (var18 Addr) (var19 Addr) (var20 Addr) (var21 Heap)) (or (not (and (inv_main1008_2 var21 var20 var19) (and (and (= nullAddr var18) (and (and (and (and (and (= var17 var16) (= var15 var14)) (= var13 var12)) (= var11 (|TSLL::next| (getTSLL (read var16 var12))))) (and (and (and (and (and (= var10 (newHeap (alloc var21 (O_TSLL var9)))) (= var8 var20)) (= var7 var19)) (= var6 (newAddr (alloc var21 (O_TSLL var9))))) (not (= var5 0))) (and (and (= var4 (write var10 var7 (O_TSLL (TSLL var6 (|TSLL::prev| (getTSLL (read var10 var7))) (|TSLL::inner| (getTSLL (read var10 var7))))))) (= var3 var8)) (= var2 var7)))) (and (and (= var16 (write var4 (|TSLL::next| (getTSLL (read var4 var2))) (O_TSLL (TSLL (|TSLL::next| (getTSLL (read var4 (|TSLL::next| (getTSLL (read var4 var2)))))) var2 (|TSLL::inner| (getTSLL (read var4 (|TSLL::next| (getTSLL (read var4 var2)))))))))) (= var14 var3)) (= var12 var2)))) (and (and (= var1 (write var17 var11 (O_TSLL (TSLL nullAddr (|TSLL::prev| (getTSLL (read var17 var11))) (|TSLL::inner| (getTSLL (read var17 var11))))))) (= var0 var15)) (= var18 var11))))) (inv_main1018_12 var1 var0 var18))))
(assert (forall ((var0 Addr) (var1 Addr) (var2 Addr) (var3 Heap) (var4 Addr) (var5 Addr) (var6 Heap)) (or (not (and (inv_main_38 var6 var5 var4) (and (not (= nullAddr (|TSLL::next| (getTSLL (read var3 var2))))) (and (= nullAddr (|TSLL::inner| (getTSLL (read var3 var2)))) (and (not (= nullAddr var2)) (and (not (= nullAddr var2)) (and (and (and (and (= var3 var6) (= var1 var5)) (= var0 var4)) (= var2 (|TSLL::inner| (getTSLL (read var6 var5))))) (not (= nullAddr var5))))))))) (inv_main1057_13 var3 var1 var2))))
(assert (forall ((var0 Addr) (var1 Addr) (var2 Int) (var3 Addr) (var4 Addr) (var5 Heap) (var6 Addr) (var7 Int) (var8 Addr) (var9 Addr) (var10 Heap)) (or (not (and (inv_main_42 var10 var9 var8 var7 var6) (and (and (and (and (and (and (= var5 var10) (= var4 var9)) (= var3 var8)) (= var2 var7)) (= var1 var6)) (= var0 (|TSLL::inner| (getTSLL (read var10 var6))))) (and (= nullAddr (|TSLL::next| (getTSLL (read var10 var6)))) (and (= nullAddr (|TSLL::inner| (getTSLL (read var10 var6)))) (not (= nullAddr var6))))))) (inv_main1031_3 var5 var4 var3 var2 var0))))
(assert (forall ((var0 Addr) (var1 Int) (var2 Addr) (var3 Int) (var4 Addr) (var5 Addr) (var6 Heap) (var7 Addr) (var8 Addr) (var9 Int) (var10 Addr) (var11 Addr) (var12 Heap)) (or (not (and (inv_main1031_3 var12 var11 var10 var9 var8) (and (and (and (not (= nullAddr var7)) (and (and (and (and (and (and (= var6 var12) (= var5 var11)) (= var4 var10)) (= var3 var9)) (= var2 var8)) (= var7 (|TSLL::next| (getTSLL (read var12 var10))))) (and (<= 0 (+ 1 (* (- 1) var9))) (= nullAddr var8)))) (= var1 0)) (= var0 (|TSLL::inner| (getTSLL (read var6 var7))))))) (inv_main1031_3 var6 var5 var7 var1 var0))))
(assert (forall ((var0 Addr) (var1 Int) (var2 Addr) (var3 Heap) (var4 Int) (var5 Addr) (var6 Addr) (var7 Addr) (var8 Heap)) (or (not (and (inv_main1008_2 var8 var7 var6) (and (and (and (not (= nullAddr var5)) (and (not (= nullAddr var5)) (and (= var4 0) (and (and (= var3 var8) (= var5 var7)) (= var2 nullAddr))))) (= var1 0)) (= var0 (|TSLL::inner| (getTSLL (read var3 var5))))))) (inv_main1031_3 var3 var5 var5 var1 var0))))
(assert (forall ((var0 Int) (var1 Addr) (var2 Int) (var3 Addr) (var4 Addr) (var5 Heap)) (or (not (and (inv_main1031_3 var5 var4 var3 var2 var1) (and (and (= var2 0) (not (= nullAddr var1))) (= var0 1)))) (inv_main_42 var5 var4 var3 var0 var1))))
(assert (forall ((var0 Int) (var1 Addr) (var2 Int) (var3 Addr) (var4 Addr) (var5 Heap)) (or (not (and (inv_main1031_3 var5 var4 var3 var2 var1) (and (and (not (= var2 0)) (not (= nullAddr var1))) (= var0 2)))) (inv_main_42 var5 var4 var3 var0 var1))))
(assert (forall ((var0 Heap) (var1 Heap) (var2 Addr) (var3 Heap) (var4 Addr) (var5 TSLL) (var6 Heap) (var7 Addr) (var8 Int) (var9 Heap)) (or (not (and (inv_main1003_2 var9) (and (and (not (= var8 0)) (and (and (not (= var7 nullAddr)) (and (and (= var6 (newHeap (alloc var9 (O_TSLL var5)))) (= var4 (newAddr (alloc var9 (O_TSLL var5))))) (and (= var3 (write var6 var4 (O_TSLL (TSLL nullAddr (|TSLL::prev| (getTSLL (read var6 var4))) (|TSLL::inner| (getTSLL (read var6 var4))))))) (= var2 var4)))) (and (= var1 (write var3 var2 (O_TSLL (TSLL (|TSLL::next| (getTSLL (read var3 var2))) nullAddr (|TSLL::inner| (getTSLL (read var3 var2))))))) (= var7 var2)))) (= var0 (write var1 var7 (O_TSLL (TSLL (|TSLL::next| (getTSLL (read var1 var7))) (|TSLL::prev| (getTSLL (read var1 var7))) nullAddr))))))) (inv_main_6 var0 var7))))
(assert (forall ((var0 Heap) (var1 Addr) (var2 Heap) (var3 Addr) (var4 Heap) (var5 Addr) (var6 Heap) (var7 Addr) (var8 TSLL) (var9 Heap) (var10 Int) (var11 Addr) (var12 Addr) (var13 Addr) (var14 TSLL) (var15 Heap) (var16 Heap) (var17 Heap)) (or (not (and (inv_main1003_2 var17) (and (and (and (and (and (and (= var16 (newHeap (alloc var15 (O_TSLL var14)))) (= var13 var12)) (= var11 (newAddr (alloc var15 (O_TSLL var14))))) (and (= var10 0) (and (and (not (= var12 nullAddr)) (and (and (= var9 (newHeap (alloc var17 (O_TSLL var8)))) (= var7 (newAddr (alloc var17 (O_TSLL var8))))) (and (= var6 (write var9 var7 (O_TSLL (TSLL nullAddr (|TSLL::prev| (getTSLL (read var9 var7))) (|TSLL::inner| (getTSLL (read var9 var7))))))) (= var5 var7)))) (and (= var15 (write var6 var5 (O_TSLL (TSLL (|TSLL::next| (getTSLL (read var6 var5))) nullAddr (|TSLL::inner| (getTSLL (read var6 var5))))))) (= var12 var5))))) (and (= var4 (write var16 var13 (O_TSLL (TSLL (|TSLL::next| (getTSLL (read var16 var13))) (|TSLL::prev| (getTSLL (read var16 var13))) var11)))) (= var3 var13))) (and (= var2 (write var4 (|TSLL::inner| (getTSLL (read var4 var3))) (O_TSLL (TSLL nullAddr (|TSLL::prev| (getTSLL (read var4 (|TSLL::inner| (getTSLL (read var4 var3)))))) (|TSLL::inner| (getTSLL (read var4 (|TSLL::inner| (getTSLL (read var4 var3)))))))))) (= var1 var3))) (= var0 (write var2 (|TSLL::inner| (getTSLL (read var2 var1))) (O_TSLL (TSLL (|TSLL::next| (getTSLL (read var2 (|TSLL::inner| (getTSLL (read var2 var1)))))) (|TSLL::prev| (getTSLL (read var2 (|TSLL::inner| (getTSLL (read var2 var1)))))) nullAddr))))))) (inv_main_6 var0 var1))))
(assert (forall ((var0 Addr) (var1 Addr) (var2 Heap) (var3 Addr) (var4 Addr) (var5 Addr) (var6 Heap) (var7 Addr) (var8 Addr) (var9 Heap) (var10 Addr) (var11 Int) (var12 Addr) (var13 Addr) (var14 Heap)) (or (not (and (inv_main_26 var14 var13 var12) (and (and (= var11 0) (and (and (= var10 nullAddr) (and (and (and (= var9 var14) (= var8 var13)) (= var7 var12)) (= var10 (|TSLL::inner| (getTSLL (read var14 var12)))))) (and (and (and (= var6 var9) (= var5 var8)) (= var4 var7)) (= var3 (|TSLL::inner| (getTSLL (read var9 var7))))))) (and (and (and (= var2 var6) (= var1 var5)) (= var0 var4)) (or (and (= var3 nullAddr) (= var11 1)) (and (not (= var3 nullAddr)) (= var11 0))))))) (inv_main1019_252 var2 var1 var0))))
(assert (forall ((var0 Addr) (var1 Addr) (var2 Addr) (var3 Heap) (var4 Addr) (var5 Addr) (var6 Heap)) (or (not (and (inv_main_38 var6 var5 var4) (and (not (= nullAddr (|TSLL::inner| (getTSLL (read var3 var2))))) (and (not (= nullAddr var2)) (and (not (= nullAddr var2)) (and (and (and (and (= var3 var6) (= var1 var5)) (= var0 var4)) (= var2 (|TSLL::inner| (getTSLL (read var6 var5))))) (not (= nullAddr var5)))))))) (inv_main1056_13 var3 var1 var2))))
(assert (forall ((var0 Heap) (var1 Addr) (var2 Heap) (var3 Addr) (var4 Addr) (var5 Heap) (var6 Int) (var7 Addr) (var8 Addr) (var9 Addr) (var10 TSLL) (var11 Heap) (var12 Addr) (var13 Addr) (var14 Addr) (var15 Addr) (var16 Addr) (var17 Heap) (var18 Heap) (var19 Addr) (var20 Int) (var21 Addr) (var22 Addr) (var23 Heap)) (or (not (and (inv_main1008_2 var23 var22 var21) (and (and (not (= var20 0)) (and (not (= var19 nullAddr)) (and (and (not (= nullAddr var19)) (and (and (and (and (and (= var18 var17) (= var16 var15)) (= var14 var13)) (= var12 (|TSLL::next| (getTSLL (read var17 var13))))) (and (and (and (and (and (= var11 (newHeap (alloc var23 (O_TSLL var10)))) (= var9 var22)) (= var8 var21)) (= var7 (newAddr (alloc var23 (O_TSLL var10))))) (not (= var6 0))) (and (and (= var5 (write var11 var8 (O_TSLL (TSLL var7 (|TSLL::prev| (getTSLL (read var11 var8))) (|TSLL::inner| (getTSLL (read var11 var8))))))) (= var4 var9)) (= var3 var8)))) (and (and (= var17 (write var5 (|TSLL::next| (getTSLL (read var5 var3))) (O_TSLL (TSLL (|TSLL::next| (getTSLL (read var5 (|TSLL::next| (getTSLL (read var5 var3)))))) var3 (|TSLL::inner| (getTSLL (read var5 (|TSLL::next| (getTSLL (read var5 var3)))))))))) (= var15 var4)) (= var13 var3)))) (and (and (= var2 (write var18 var12 (O_TSLL (TSLL nullAddr (|TSLL::prev| (getTSLL (read var18 var12))) (|TSLL::inner| (getTSLL (read var18 var12))))))) (= var1 var16)) (= var19 var12))))) (= var0 (write var2 var19 (O_TSLL (TSLL (|TSLL::next| (getTSLL (read var2 var19))) (|TSLL::prev| (getTSLL (read var2 var19))) nullAddr))))))) (inv_main_26 var0 var1 var19))))
(assert (forall ((var0 Heap) (var1 Addr) (var2 Addr) (var3 Heap) (var4 Addr) (var5 Addr) (var6 Heap) (var7 Addr) (var8 Addr) (var9 Heap) (var10 Int) (var11 Addr) (var12 Addr) (var13 Addr) (var14 TSLL) (var15 Heap) (var16 Addr) (var17 Addr) (var18 Addr) (var19 Addr) (var20 Addr) (var21 Heap) (var22 Heap) (var23 Int) (var24 Addr) (var25 Addr) (var26 Addr) (var27 Addr) (var28 Addr) (var29 TSLL) (var30 Heap) (var31 Heap) (var32 Addr) (var33 Addr) (var34 Heap)) (or (not (and (inv_main1008_2 var34 var33 var32) (and (and (and (and (and (and (and (= var31 (newHeap (alloc var30 (O_TSLL var29)))) (= var28 var27)) (= var26 var25)) (= var24 (newAddr (alloc var30 (O_TSLL var29))))) (and (= var23 0) (and (not (= var25 nullAddr)) (and (and (not (= nullAddr var25)) (and (and (and (and (and (= var22 var21) (= var20 var19)) (= var18 var17)) (= var16 (|TSLL::next| (getTSLL (read var21 var17))))) (and (and (and (and (and (= var15 (newHeap (alloc var34 (O_TSLL var14)))) (= var13 var33)) (= var12 var32)) (= var11 (newAddr (alloc var34 (O_TSLL var14))))) (not (= var10 0))) (and (and (= var9 (write var15 var12 (O_TSLL (TSLL var11 (|TSLL::prev| (getTSLL (read var15 var12))) (|TSLL::inner| (getTSLL (read var15 var12))))))) (= var8 var13)) (= var7 var12)))) (and (and (= var21 (write var9 (|TSLL::next| (getTSLL (read var9 var7))) (O_TSLL (TSLL (|TSLL::next| (getTSLL (read var9 (|TSLL::next| (getTSLL (read var9 var7)))))) var7 (|TSLL::inner| (getTSLL (read var9 (|TSLL::next| (getTSLL (read var9 var7)))))))))) (= var19 var8)) (= var17 var7)))) (and (and (= var30 (write var22 var16 (O_TSLL (TSLL nullAddr (|TSLL::prev| (getTSLL (read var22 var16))) (|TSLL::inner| (getTSLL (read var22 var16))))))) (= var27 var20)) (= var25 var16)))))) (and (and (= var6 (write var31 var26 (O_TSLL (TSLL (|TSLL::next| (getTSLL (read var31 var26))) (|TSLL::prev| (getTSLL (read var31 var26))) var24)))) (= var5 var28)) (= var4 var26))) (and (and (= var3 (write var6 (|TSLL::inner| (getTSLL (read var6 var4))) (O_TSLL (TSLL nullAddr (|TSLL::prev| (getTSLL (read var6 (|TSLL::inner| (getTSLL (read var6 var4)))))) (|TSLL::inner| (getTSLL (read var6 (|TSLL::inner| (getTSLL (read var6 var4)))))))))) (= var2 var5)) (= var1 var4))) (= var0 (write var3 (|TSLL::inner| (getTSLL (read var3 var1))) (O_TSLL (TSLL (|TSLL::next| (getTSLL (read var3 (|TSLL::inner| (getTSLL (read var3 var1)))))) (|TSLL::prev| (getTSLL (read var3 (|TSLL::inner| (getTSLL (read var3 var1)))))) nullAddr))))))) (inv_main_26 var0 var2 var1))))
(assert (forall ((var0 Addr) (var1 Heap) (var2 Addr) (var3 Addr) (var4 Heap) (var5 Addr) (var6 Heap) (var7 Addr) (var8 Int) (var9 Addr) (var10 Heap)) (or (not (and (inv_main_6 var10 var9) (and (and (= var8 0) (and (and (= var7 nullAddr) (and (and (= var6 var10) (= var5 var9)) (= var7 (|TSLL::inner| (getTSLL (read var10 var9)))))) (and (and (= var4 var6) (= var3 var5)) (= var2 (|TSLL::inner| (getTSLL (read var6 var5))))))) (and (and (= var1 var4) (= var0 var3)) (or (and (= var2 nullAddr) (= var8 1)) (and (not (= var2 nullAddr)) (= var8 0))))))) (inv_main1006_256 var1 var0))))
(assert (forall ((var0 Addr) (var1 Addr) (var2 Heap) (var3 Addr) (var4 Addr) (var5 Addr) (var6 Heap)) (or (not (and (inv_main_26 var6 var5 var4) (and (not (= var3 nullAddr)) (and (and (and (= var2 var6) (= var1 var5)) (= var0 var4)) (= var3 (|TSLL::inner| (getTSLL (read var6 var4)))))))) (inv_main1008_2 var2 var1 var0))))
(assert (forall ((var0 Addr) (var1 Addr) (var2 Heap) (var3 Addr) (var4 Addr) (var5 Addr) (var6 Heap) (var7 Addr) (var8 Addr) (var9 Heap) (var10 Addr) (var11 Int) (var12 Addr) (var13 Addr) (var14 Heap)) (or (not (and (inv_main_26 var14 var13 var12) (and (and (not (= var11 0)) (and (and (= var10 nullAddr) (and (and (and (= var9 var14) (= var8 var13)) (= var7 var12)) (= var10 (|TSLL::inner| (getTSLL (read var14 var12)))))) (and (and (and (= var6 var9) (= var5 var8)) (= var4 var7)) (= var3 (|TSLL::inner| (getTSLL (read var9 var7))))))) (and (and (and (= var2 var6) (= var1 var5)) (= var0 var4)) (or (and (= var3 nullAddr) (= var11 1)) (and (not (= var3 nullAddr)) (= var11 0))))))) (inv_main1008_2 var2 var1 var0))))
(assert (forall ((var0 Addr) (var1 Heap) (var2 Addr) (var3 Addr) (var4 Heap)) (or (not (and (inv_main_6 var4 var3) (and (not (= var2 nullAddr)) (and (and (= var1 var4) (= var0 var3)) (= var2 (|TSLL::inner| (getTSLL (read var4 var3)))))))) (inv_main1008_2 var1 var0 var0))))
(assert (forall ((var0 Addr) (var1 Heap) (var2 Addr) (var3 Addr) (var4 Heap) (var5 Addr) (var6 Heap) (var7 Addr) (var8 Int) (var9 Addr) (var10 Heap)) (or (not (and (inv_main_6 var10 var9) (and (and (not (= var8 0)) (and (and (= var7 nullAddr) (and (and (= var6 var10) (= var5 var9)) (= var7 (|TSLL::inner| (getTSLL (read var10 var9)))))) (and (and (= var4 var6) (= var3 var5)) (= var2 (|TSLL::inner| (getTSLL (read var6 var5))))))) (and (and (= var1 var4) (= var0 var3)) (or (and (= var2 nullAddr) (= var8 1)) (and (not (= var2 nullAddr)) (= var8 0))))))) (inv_main1008_2 var1 var0 var0))))
(assert (forall ((var0 Addr) (var1 Heap)) (not (inv_main1006_11 var1 var0))))
(assert (forall ((var0 Addr) (var1 Heap)) (not (inv_main1006_256 var1 var0))))
(assert (forall ((var0 Addr) (var1 Addr) (var2 Heap)) (not (inv_main1018_12 var2 var1 var0))))
(assert (forall ((var0 Addr) (var1 Addr) (var2 Heap)) (not (inv_main1019_12 var2 var1 var0))))
(assert (forall ((var0 Addr) (var1 Addr) (var2 Heap)) (not (inv_main1019_252 var2 var1 var0))))
(assert (forall ((var0 Addr) (var1 Addr) (var2 Heap)) (not (inv_main1026_11 var2 var1 var0))))
(assert (forall ((var0 Addr) (var1 Int) (var2 Addr) (var3 Addr) (var4 Heap)) (not (inv_main1038_13 var4 var3 var2 var1 var0))))
(assert (forall ((var0 Addr) (var1 Int) (var2 Addr) (var3 Addr) (var4 Heap)) (not (inv_main1039_13 var4 var3 var2 var1 var0))))
(assert (forall ((var0 Addr) (var1 Int) (var2 Addr) (var3 Addr) (var4 Heap)) (not (inv_main1040_13 var4 var3 var2 var1 var0))))
(assert (forall ((var0 Addr) (var1 Int) (var2 Addr) (var3 Addr) (var4 Heap)) (not (inv_main1043_12 var4 var3 var2 var1 var0))))
(assert (forall ((var0 Addr) (var1 Addr) (var2 Heap)) (not (inv_main1055_13 var2 var1 var0))))
(assert (forall ((var0 Addr) (var1 Addr) (var2 Heap)) (not (inv_main1056_13 var2 var1 var0))))
(assert (forall ((var0 Addr) (var1 Addr) (var2 Heap)) (not (inv_main1057_13 var2 var1 var0))))
(check-sat)
